20	5
0	6	6	1	2	4	5	3
1	5	16	19	17	14	10
2	5	14	17	19	10	16
3	6	7	20	19	14	17	8
4	6	8	17	14	13	16	20
5	5	17	16	19	9	13
6	5	7	16	20	17	9
7	4	15	12	18	11
8	3	11	9	12
9	1	18
10	4	7	13	8	20
11	1	21
12	1	21
13	1	21
14	1	21
15	1	21
16	1	21
17	1	21
18	1	21
19	1	21
20	1	21
21	0
0	0	0	0	0	0	0
1	7	5	3	4	2	4
2	1	3	3	1	0	4
3	5	2	1	4	2	0
4	5	4	0	5	0	0
5	5	0	4	4	2	0
6	4	0	4	1	3	5
7	5	2	0	5	0	5
8	10	3	0	1	5	1
9	6	0	0	0	3	2
10	9	0	3	2	5	0
11	1	5	5	3	3	1
12	9	1	5	5	4	3
13	7	4	5	4	2	3
14	10	3	0	0	0	0
15	1	2	0	2	0	3
16	1	3	4	3	5	4
17	4	1	3	2	1	3
18	9	0	3	4	0	1
19	2	2	4	3	4	3
20	6	0	2	2	2	4
21	0	0	0	0	0	0
5	5	5	5	5
